(declare-const i_init Int)
(declare-const j_init Int)
(declare-const c_0 Int)
(declare-const c_1 Int)
(declare-const c_2 Int)
(declare-const c_3 Int)
(declare-const c_4 Int)
(declare-const c_5 Int)
(declare-const c_6 Int)
(declare-const c_7 Int)
(declare-const c_8 Int)
(assert (< c_0 0))
(assert (and (>= (+ (* 1 c_1 ) (* (- 1) i_init ) ) 0) (>= (+ (* (- 1) c_1 ) (* 1 i_init ) ) 0) (>= (+ (* 1 c_2 ) (* (- 1) j_init ) ) 0) (>= (+ (* (- 1) c_2 ) (* 1 j_init ) ) 0) ))
(assert (forall ((i Real) (j Real) ) (=> (and (>= (+ (* 1 c_1 ) (* (- 1) i ) ) 0) (>= (+ (* (- 1) c_1 ) (* 1 i ) ) 0) (>= (+ (* 1 c_2 ) (* (- 1) j ) ) 0) (>= (+ (* (- 1) c_2 ) (* 1 j ) ) 0) ) (>= (+ (* 1 c_3 ) (* 100 c_5 ) ) 0) )))
(assert (forall ((i Real) (j Real) ) (=> (and (>= (+ (* 1 c_1 ) (* (- 1) i ) ) 0) (>= (+ (* (- 1) c_1 ) (* 1 i ) ) 0) (>= (+ (* 1 c_2 ) (* (- 1) j ) ) 0) (>= (+ (* (- 1) c_2 ) (* 1 j ) ) 0) ) (>= (+ (* 1 c_6 ) (* 100 c_8 ) ) 0) )))
(assert (forall ((i Real) (j Real) ) (=> (and (>= (+ (* (- 52) 1) (* 1 j ) ) 0) (>= (+ (* (- 1) 1) (* (- 1) i ) (* 1 j ) ) 0) (>= (+ (* 1 c_3 ) (* 1 c_4 i ) (* 1 c_5 j ) ) 0) (>= (+ (* 1 c_6 ) (* 1 c_7 i ) (* 1 c_8 j ) ) 0) ) (>= (+ (* 1 c_3 ) (* 1 c_4 ) (* 1 c_4 i ) (* (- 1) c_5 ) (* 1 c_5 j ) ) 0) )))
(assert (forall ((i Real) (j Real) ) (=> (and (>= (+ (* (- 52) 1) (* 1 j ) ) 0) (>= (+ (* (- 1) 1) (* (- 1) i ) (* 1 j ) ) 0) (>= (+ (* 1 c_3 ) (* 1 c_4 i ) (* 1 c_5 j ) ) 0) (>= (+ (* 1 c_6 ) (* 1 c_7 i ) (* 1 c_8 j ) ) 0) ) (>= (+ (* 1 c_6 ) (* 1 c_7 ) (* 1 c_7 i ) (* (- 1) c_8 ) (* 1 c_8 j ) ) 0) )))
(assert (forall ((i Real) (j Real) ) (=> (and (>= (+ (* 51 1) (* (- 1) j ) ) 0) (>= (+ (* (- 1) 1) (* (- 1) i ) (* 1 j ) ) 0) (>= (+ (* 1 c_3 ) (* 1 c_4 i ) (* 1 c_5 j ) ) 0) (>= (+ (* 1 c_6 ) (* 1 c_7 i ) (* 1 c_8 j ) ) 0) ) (>= (+ (* 1 c_3 ) (* (- 1) c_4 ) (* 1 c_4 i ) (* 1 c_5 ) (* 1 c_5 j ) ) 0) )))
(assert (forall ((i Real) (j Real) ) (=> (and (>= (+ (* 51 1) (* (- 1) j ) ) 0) (>= (+ (* (- 1) 1) (* (- 1) i ) (* 1 j ) ) 0) (>= (+ (* 1 c_3 ) (* 1 c_4 i ) (* 1 c_5 j ) ) 0) (>= (+ (* 1 c_6 ) (* 1 c_7 i ) (* 1 c_8 j ) ) 0) ) (>= (+ (* 1 c_6 ) (* (- 1) c_7 ) (* 1 c_7 i ) (* 1 c_8 ) (* 1 c_8 j ) ) 0) )))
(assert (forall ((i Real) (j Real) ) (=> (and (>= (+ (* 1 i ) (* (- 1) j ) ) 0) (>= (+ (* 1 c_3 ) (* 1 c_4 i ) (* 1 c_5 j ) ) 0) (>= (+ (* 1 c_6 ) (* 1 c_7 i ) (* 1 c_8 j ) ) 0) ) (>= (* 1 c_0 ) 0) )))
(check-sat)
(get-model)

